NAME: random-55-27238
TYPE: TSP
COMMENT: size=55 seed=27238
DIMENSION: 112
EDGE_WEIGHT_TYPE: EUC_2D
NODE_COORD_SECTION
+0 66 708
-0 66 708
+1 723 28
-1 665 934
+2 880 769
-2 805 161
+3 545 169
-3 874 445
+4 666 279
-4 299 116
+5 77 440
-5 568 445
+6 871 310
-6 474 447
+7 698 677
-7 721 868
+8 100 622
-8 77 474
+9 545 321
-9 331 101
+10 130 922
-10 633 175
+11 768 897
-11 276 899
+12 256 724
-12 819 650
+13 532 583
-13 89 475
+14 115 498
-14 185 11
+15 756 434
-15 548 929
+16 160 276
-16 423 367
+17 959 878
-17 138 917
+18 221 264
-18 307 182
+19 384 60
-19 76 456
+20 814 514
-20 198 694
+21 143 301
-21 699 726
+22 57 230
-22 647 353
+23 870 856
-23 276 534
+24 480 319
-24 499 114
+25 393 471
-25 817 585
+26 617 414
-26 941 186
+27 593 833
-27 708 471
+28 375 783
-28 837 979
+29 699 244
-29 235 912
+30 614 653
-30 965 156
+31 406 286
-31 632 642
+32 659 53
-32 323 150
+33 698 750
-33 870 78
+34 93 810
-34 227 381
+35 189 897
-35 888 921
+36 7 969
-36 606 860
+37 781 446
-37 903 158
+38 106 242
-38 387 494
+39 985 394
-39 386 510
+40 24 309
-40 706 468
+41 160 699
-41 808 276
+42 979 220
-42 57 191
+43 424 845
-43 927 123
+44 776 882
-44 117 939
+45 190 253
-45 738 10
+46 183 916
-46 78 851
+47 910 104
-47 380 77
+48 539 374
-48 961 362
+49 285 220
-49 600 615
+50 470 688
-50 795 836
+51 354 610
-51 72 90
+52 623 267
-52 538 61
+53 55 208
-53 537 894
+54 234 858
-54 424 310
+55 679 131
-55 317 263
PRECEDENCE_SECTION
+0 -0
+1 -1
+2 -2
+3 -3
+4 -4
+5 -5
+6 -6
+7 -7
+8 -8
+9 -9
+10 -10
+11 -11
+12 -12
+13 -13
+14 -14
+15 -15
+16 -16
+17 -17
+18 -18
+19 -19
+20 -20
+21 -21
+22 -22
+23 -23
+24 -24
+25 -25
+26 -26
+27 -27
+28 -28
+29 -29
+30 -30
+31 -31
+32 -32
+33 -33
+34 -34
+35 -35
+36 -36
+37 -37
+38 -38
+39 -39
+40 -40
+41 -41
+42 -42
+43 -43
+44 -44
+45 -45
+46 -46
+47 -47
+48 -48
+49 -49
+50 -50
+51 -51
+52 -52
+53 -53
+54 -54
+55 -55
EOF
